s td 88 9 96
b 1 1 2 13
b 2 11 12 24
b 3 73 85 86
b 4 84 95 96
b 5 2 3 13 14
b 6 10 11 23 24
b 7 3 4 16 29 42 55 68 81 93
b 8 4 5 16 29 42 55 68 81 93
b 9 5 16 18 29 42 55 68 81 93
b 10 5 18 29 31 42 55 68 81 93
b 11 5 18 31 42 44 55 68 81 93
b 12 5 18 31 44 55 57 68 81 93
b 13 5 18 31 44 57 68 70 81 93
b 14 5 7 18 31 44 57 70 81 93
b 15 5 6 7 18
b 16 7 18 20 31 44 57 70 81 93
b 17 7 20 31 33 44 57 70 81 93
b 18 7 20 33 44 46 57 70 81 93
b 19 7 20 33 46 57 59 70 81 93
b 20 7 20 33 46 48 59 70 81 93
b 21 7 9 20 33 46 48 59
b 22 7 8 9 20
b 23 9 20 22 33 46 48 59
b 24 9 22 33 35 46 48 59
b 25 9 22 24 35 48
b 26 9 22 23 24 35
b 27 9 10 22 23 24
b 28 24 35 36 48
b 29 22 33 34 35 46
b 30 35 46 47 48 59
b 31 9 20 21 22 33
b 32 48 59 70 81 82 93
b 33 48 59 70 71 82 93
b 34 48 59 60 71 82 93
b 35 60 71 82 93 95
b 36 60 71 82 83 95
b 37 60 71 72 83 95
b 38 82 93 94 95
b 39 46 57 58 59 70
b 40 33 44 45 46 57
b 41 20 31 32 33 44
b 42 7 18 19 20 31
b 43 57 68 69 70 81
b 44 44 55 56 57 68
b 45 31 42 43 44 55
b 46 18 29 30 31 42
b 47 5 16 17 18 29
b 48 3 16 29 42 55 68 81 92 93
b 49 3 16 29 42 55 68 79 81 92
b 50 3 16 29 42 55 66 68 79 92
b 51 3 16 29 42 53 55 66 79 92
b 52 3 16 29 42 53 66 79 90 92
b 53 3 16 29 42 53 66 77 79 90
b 54 3 16 29 42 53 64 66 77 90
b 55 3 16 29 40 42 53 64 77 90
b 56 3 16 29 40 51 53 64 77 90
b 57 3 16 27 29 40 51 64 77 90
b 58 3 16 27 38 40 51 64 77 90
b 59 3 16 27 38 49 51 64 77 90
b 60 3 16 25 27 38 49
b 61 3 14 16 25 27 38
b 62 3 13 14 25
b 63 3 14 15 16 27
b 64 14 25 26 27 38
b 65 25 37 38 49
b 66 38 49 51 62 64 77 90
b 67 38 49 50 51 62
b 68 49 51 62 64 75 77 90
b 69 49 62 64 75 77 87 90
b 70 49 62 74 75 87
b 71 49 61 62 74 87
b 72 61 74 86 87
b 73 64 75 76 77 87 90
b 74 76 77 87 89 90
b 75 76 87 88 89
b 76 51 62 63 64 75
b 77 27 38 39 40 51
b 78 16 27 28 29 40
b 79 40 51 52 53 64
b 80 29 40 41 42 53
b 81 53 64 65 66 77
b 82 66 77 78 79 90
b 83 79 90 91 92
b 84 42 53 54 55 66
b 85 55 66 67 68 79
b 86 68 79 80 81 92
b 87 61 73 74 86
b 88 72 83 84 95
1 5
2 6
3 87
4 88
5 62
6 27
7 8
7 48
8 9
9 10
9 47
10 11
10 46
11 12
11 45
12 13
12 44
13 14
13 43
14 15
14 16
16 17
16 42
17 18
17 41
18 19
18 40
19 20
19 39
20 21
20 32
21 22
21 23
23 24
23 31
24 25
24 29
24 30
25 26
25 28
26 27
32 33
33 34
34 35
35 36
35 38
36 37
37 88
48 49
49 50
49 86
50 51
50 85
51 52
51 84
52 53
52 83
53 54
53 82
54 55
54 81
55 56
55 80
56 57
56 79
57 58
57 78
58 59
58 77
59 60
59 66
60 61
60 65
61 62
61 63
61 64
66 67
66 68
68 69
68 76
69 70
69 73
70 71
71 72
72 87
73 74
74 75
